(set-logic QF_S)
(declare-fun x () String)
(declare-fun y () String)
(declare-fun z () Int)
(assert (not (= (str.suffixof x (str.replace "B" y "B")) (str.prefixof x (str.replace "B" y "B")))))
(check-sat)
